(set-logic QF_S)
(declare-fun var_0xINPUT_169289 () String)
(assert (and (= (len var_0xINPUT_169289) 0) (= (len var_0xINPUT_169289) 0) (not (= var_0xINPUT_169289 "6JX7G3VKFq"))))
(check-sat var_0xINPUT_169289)